build/qcp.lp
\ Model qcp
\ LP format - for model browsing. Use MPS format to capture full model detail.
Minimize
  16.68781348046087 C0 + 16.68781348046087 C1 + 16.66666666666666 C2
   + 16.66666666666666 C3 + [ - 33.37562696092175 C0 * C1
   + 133.7513345161125 C0 * C3 + 132.8730385229657 C1 * C2
   - 33.33333333333333 C2 * C3 ] / 2 
Subject To
 R0: 2.3296390458435478e+23 C4 - 3.8738162554790058e+22 C5
   - 3.8787313877406615e+22 C6 >= 0
 R1: 1.5441772096354577e+23 C4 + 3.8738162554790058e+22 C5
   - 3.4859431167049391e+23 C6 >= 0
 R2: - 1.5441772096354577e+23 C4 - 3.8738162554790058e+22 C5
   - 3.8787313877406615e+22 C6 >= 0
 R3: 1.5441772096354577e+23 C4 - 3.4864346299311053e+23 C5
   + 3.8787313877406615e+22 C6 >= 0
 qc0: 6.013808844311029 C4 - C5 - 1.001268808827652 C6 + [ - 10 C0 * C4
   + 10 C0 * C5 ] = 0
 qc1: - 3.98619115568897 C4 - C5 - 1.001268808827652 C6 + [ 10 C1 * C5 ]
   = 0
 qc2: - 3.98619115568897 C4 - C5 - 1.001268808827652 C6 + [ 10 C2 * C6 ]
   = 0
 qc3: 6.013808844311029 C4 - C5 - 1.001268808827652 C6 + [ - 10 C3 * C4
   + 10 C3 * C6 ] = 0
 norm: [ C4 ^2 + C5 ^2 + C6 ^2 ] = 1
Bounds
 C0 <= 1
 C1 <= 1
 C2 <= 1
 C3 <= 1
 -1 <= C4 <= 1
 -1 <= C5 <= 1
 -1 <= C6 <= 1
End