build/qcp.log

Gurobi 12.0.1 (mac64[arm]) logging started Di  4 Mär 20:37:55 2025

Set parameter Username
Academic license - for non-commercial use only - expires 2026-02-28
Gurobi Optimizer version 12.0.1 build v12.0.1rc0 (mac64[arm] - Darwin 23.3.0 23D60)

CPU model: Apple M3 Pro
Thread count: 11 physical cores, 11 logical processors, using up to 11 threads

Optimize a model with 1 rows, 3 columns and 3 nonzeros
Model fingerprint: 0x58e89e73
Model has 2 quadratic constraints
Coefficient statistics:
  Matrix range     [1e+00, 1e+00]
  QMatrix range    [1e+00, 1e+00]
  Objective range  [1e+00, 1e+00]
  Bounds range     [0e+00, 0e+00]
  RHS range        [1e+00, 1e+00]
Presolve time: 0.00s
Presolved: 4 rows, 6 columns, 11 nonzeros
Presolved model has 2 second-order cone constraints
Ordering time: 0.00s

Barrier statistics:
 AA' NZ     : 6.000e+00
 Factor NZ  : 1.000e+01
 Factor Ops : 3.000e+01 (less than 1 second per iteration)
 Threads    : 1

                  Objective                Residual
Iter       Primal          Dual         Primal    Dual     Compl     Time
   0   2.72727273e-01  2.72727273e-01  4.06e-01 5.90e-01  2.75e-01     0s
   1   3.08401320e-01  5.54677958e-01  4.46e-07 6.49e-07  3.08e-02     0s
   2   3.23456240e-01  3.29179318e-01  4.90e-13 7.79e-09  7.15e-04     0s
   3   3.26703103e-01  3.27089699e-01  1.23e-13 1.95e-14  4.83e-05     0s
   4   3.26986564e-01  3.26996874e-01  1.06e-13 6.92e-14  1.29e-06     0s
   5   3.26992723e-01  3.26992997e-01  7.63e-12 4.28e-12  3.43e-08     0s

Barrier solved model in 5 iterations and 0.00 seconds (0.00 work units)
Optimal objective 3.26992723e-01

